c array.sh: path:     /data/qbf/qbf20/PCNF/fpu-10Xh-correct04-uniform-depth-18.qdimacs
c array.sh: name:     fpu-10Xh-correct04-uniform-depth-18
c array.sh: task:     55
c array.sh: host:     c3n28
c array.sh: uname:    Linux c3n28 4.15.0-135-generic #139-Ubuntu SMP Mon Jan 18 17:38:24 UTC 2021 x86_64 x86_64 x86_64 GNU/Linux
c array.sh: start:    Thu Feb 18 09:53:05 CET 2021
c array.sh: noturbo:  1
c array.sh: governor: 32 performance
c array.sh: tmp:      1%
c array.sh: unzipped: /tmp/local-unzipped-18838260-55-fpu-10Xh-correct04-uniform-depth-18.cnf
*** qbfcert: using tmp directory:
*** qbfcert:   /tmp
trace-size: 40319992
solving-res 20
proof-size: 4084492
cert-size: 3354441
cert-header: aag 489934 487077 0 0 0
merged-header: p cnf 3965960 8958272
merged-size: 189665040
c ---- [ banner ] ------------------------------------------------------------
c
c KISSAT SAT Solver
c Copyright (c) 2019-2020 Armin Biere JKU Linz
c 
c Version 1.0.3 59813addcacc4d6fb880ebdd63685600475aa940
c gcc (Ubuntu 7.5.0-3ubuntu1~18.04) 7.5.0 -W -Wall -O3 -DNEMBEDDED -DNDEBUG -DNMETRICS -DNSTATISTICS
c Sun Feb 14 23:58:54 CET 2021 Linux cluster3 4.15.0-135-generic x86_64
c
c ---- [ parsing ] -----------------------------------------------------------
c
c opened and reading DIMACS file:
c 
c   /tmp/qbfcert_merged_cnf7429.cnf
c 
c parsed 'p cnf 3965960 8958272' header
c closing input after reading 189665040 bytes (181 MB)
c finished parsing after 3.19 seconds
c
c ---- [ solving ] -----------------------------------------------------------
c
c  seconds  reductions redundant irredundant
c          MB   restarts    trail        variables
c           level  conflicts   glue            remaining
c
c *  3.19 499 0  0  0   1   0 0% 0 8958270 512722 13%
c {  3.19 499 0  0  0   1   0 0% 0 8958270 512722 13%
c }  3.19 499 0  0  0   1   0 0% 0 8958270 512722 13%
c 0  3.19 499 0  0  0   1   0 0% 0 8958270 512722 13%
c
c ---- [ result ] ------------------------------------------------------------
c
s UNSATISFIABLE
c
c ---- [ profiling ] ---------------------------------------------------------
c
c           3.19   99.99 %  parse
c           0.00    0.00 %  search
c           0.00    0.00 %  focused
c           0.00    0.00 %  simplify
c =============================================
c           3.19  100.00 %  total
c
c ---- [ statistics ] --------------------------------------------------------
c
c conflicts:                                1                0.31 per second
c decisions:                                0                0.00 per conflict
c propagations:                       2962807           927617    per second
c
c ---- [ resources ] ---------------------------------------------------------
c
c maximum-resident-set-size:        523440128 bytes        499 MB
c process-time:                             3s               3.19 seconds
c
c ---- [ shutting down ] -----------------------------------------------------
c
c exit 20
*** qbfcert: VALID
c array.sh: end:      Thu Feb 18 09:53:15 CET 2021
